m6.py
Ipopt 3.12: 
==> Warning: Treating 30 binary and 0 integer variables as continous.


******************************************************************************
This program contains Ipopt, a library for large-scale nonlinear optimization.
 Ipopt is released as open source code under the Eclipse Public License (EPL).
         For more information visit http://projects.coin-or.org/Ipopt
******************************************************************************

This is Ipopt version 3.12, running with linear solver ma27.

Number of nonzeros in equality constraint Jacobian...:        0
Number of nonzeros in inequality constraint Jacobian.:      614
Number of nonzeros in Lagrangian Hessian.............:       12

Total number of variables............................:       84
                     variables with only lower bounds:        0
                variables with lower and upper bounds:       42
                     variables with only upper bounds:        0
Total number of equality constraints.................:        0
Total number of inequality constraints...............:      157
        inequality constraints with only lower bounds:        0
   inequality constraints with lower and upper bounds:        0
        inequality constraints with only upper bounds:      157

iter    objective    inf_pr   inf_du lg(mu)  ||d||  lg(rg) alpha_du alpha_pr  ls
   0  0.0000000e+00 4.85e+00 3.33e+00  -1.0 0.00e+00    -  0.00e+00 0.00e+00   0
   1  3.8136824e-02 4.80e+00 3.34e+00  -1.0 2.54e+00    -  1.46e-02 9.96e-03f  1
   2  1.0497007e-01 4.73e+00 3.27e+00  -1.0 3.60e+00    -  1.16e-02 1.33e-02f  1
   3  6.1312250e-01 4.14e+00 4.72e+00  -1.0 4.11e+00    -  1.93e-02 1.26e-01f  1
   4  2.7252353e+00 7.80e-01 6.53e+00  -1.0 3.65e+00    -  1.84e-01 1.00e+00f  1
   5  1.5477804e+00 4.63e-01 5.14e+00  -1.0 6.95e-01    -  5.83e-01 3.64e-01f  1
   6  1.7592421e+00 0.00e+00 1.93e+00  -1.0 8.05e-01    -  5.21e-01 1.00e+00f  1
   7  1.6818817e+00 0.00e+00 5.29e-01  -1.0 8.74e-01    -  5.90e-01 1.00e+00f  1
   8  2.8979321e-01 0.00e+00 6.57e-02  -1.7 4.60e-01    -  8.71e-01 1.00e+00f  1
   9  4.6816039e-02 0.00e+00 8.36e-03  -2.5 4.32e-01    -  8.99e-01 1.00e+00f  1
iter    objective    inf_pr   inf_du lg(mu)  ||d||  lg(rg) alpha_du alpha_pr  ls
  10  2.5364521e-03 0.00e+00 5.58e-04  -3.8 2.15e-01    -  9.53e-01 1.00e+00f  1
  11  3.0638777e-05 0.00e+00 9.55e-06  -5.7 5.19e-02    -  9.88e-01 1.00e+00h  1
  12 -5.5576635e-07 0.00e+00 2.37e-06  -8.6 6.09e-03    -  9.99e-01 9.98e-01h  1
  13 -6.0341263e-07 0.00e+00 7.82e-01  -8.6 4.25e+00    -  5.00e-01 1.00e+00f  1
  14 -6.0818807e-07 0.00e+00 1.48e-07  -8.6 1.48e-03  -4.0 1.00e+00 1.00e+00h  1
  15 -6.0784415e-07 0.00e+00 1.27e-09  -8.6 3.81e-05  -4.5 1.00e+00 1.00e+00h  1

Number of Iterations....: 15

                                   (scaled)                 (unscaled)
Objective...............:  -6.0784414883308166e-07   -6.0784414883308166e-07
Dual infeasibility......:   1.2695556736688759e-09    1.2695556736688759e-09
Constraint violation....:   0.0000000000000000e+00    0.0000000000000000e+00
Complementarity.........:   2.5125040357097454e-09    2.5125040357097454e-09
Overall NLP error.......:   2.5125040357097454e-09    2.5125040357097454e-09


Number of objective function evaluations             = 16
Number of objective gradient evaluations             = 16
Number of equality constraint evaluations            = 0
Number of inequality constraint evaluations          = 16
Number of equality constraint Jacobian evaluations   = 0
Number of inequality constraint Jacobian evaluations = 16
Number of Lagrangian Hessian evaluations             = 15
Total CPU secs in IPOPT (w/o function evaluations)   =      0.006
Total CPU secs in NLP function evaluations           =      0.000

EXIT: Optimal Solution Found.

Time elapsed: 0.12262296676635742